jobs  (incl. supersource/sink ):	52
RESOURCES
- renewable                 : 4 R
- nonrenewable              : 2 N
- doubly constrained        : 0 D
************************************************************************
PRECEDENCE RELATIONS:
jobnr.    #modes  #successors   successors
1	1	7		2 3 4 6 7 8 15 
2	9	3		13 10 5 
3	9	4		17 12 11 10 
4	9	2		10 5 
5	9	3		17 14 9 
6	9	3		17 14 9 
7	9	3		18 17 14 
8	9	1		9 
9	9	3		22 18 16 
10	9	3		22 18 16 
11	9	2		18 14 
12	9	2		22 14 
13	9	4		29 22 21 16 
14	9	3		21 20 16 
15	9	3		29 21 16 
16	9	2		25 19 
17	9	6		34 26 25 24 23 21 
18	9	3		28 21 20 
19	9	7		34 30 28 27 26 24 23 
20	9	6		38 34 32 29 27 25 
21	9	5		38 32 31 30 27 
22	9	5		38 32 31 30 27 
23	9	6		44 40 38 37 33 31 
24	9	5		44 40 38 37 31 
25	9	4		47 40 31 30 
26	9	6		44 40 38 36 35 33 
27	9	5		44 37 36 35 33 
28	9	4		44 36 33 32 
29	9	3		44 40 31 
30	9	4		44 36 35 33 
31	9	3		39 36 35 
32	9	5		51 47 43 41 40 
33	9	3		43 41 39 
34	9	4		51 44 43 40 
35	9	3		51 43 41 
36	9	4		51 46 45 43 
37	9	3		51 47 42 
38	9	2		43 42 
39	9	4		51 48 46 45 
40	9	4		50 48 46 45 
41	9	1		42 
42	9	3		48 46 45 
43	9	2		50 48 
44	9	2		49 48 
45	9	1		49 
46	9	1		49 
47	9	1		48 
48	9	1		52 
49	9	1		52 
50	9	1		52 
51	9	1		52 
52	1	0		
************************************************************************
REQUESTS/DURATIONS
jobnr.	mode	dur	R1	R2	R3	R4	N1	N2	
------------------------------------------------------------------------
1	1	0	0	0	0	0	0	0	
2	1	1	5	4	3	4	9	7	
	2	4	4	3	3	4	7	5	
	3	8	4	3	3	4	7	4	
	4	15	4	3	3	4	7	3	
	5	17	3	2	3	4	6	4	
	6	20	3	2	3	3	5	3	
	7	25	3	2	3	3	5	2	
	8	26	2	2	3	3	5	3	
	9	29	2	2	3	3	4	2	
3	1	7	4	4	4	5	27	26	
	2	8	4	3	4	4	23	26	
	3	9	3	3	4	4	20	25	
	4	10	3	3	4	4	17	24	
	5	14	3	3	3	4	15	23	
	6	18	2	3	3	3	10	21	
	7	19	2	3	3	3	10	20	
	8	20	1	3	3	3	7	20	
	9	22	1	3	3	3	3	19	
4	1	3	5	4	5	2	29	13	
	2	6	4	3	4	2	28	13	
	3	7	4	3	4	2	25	11	
	4	10	4	3	4	2	22	11	
	5	12	4	3	3	1	20	9	
	6	17	3	3	3	1	19	9	
	7	18	3	3	3	1	18	7	
	8	26	3	3	3	1	15	6	
	9	30	3	3	3	1	13	5	
5	1	1	1	3	1	3	28	28	
	2	6	1	3	1	3	22	23	
	3	7	1	3	1	3	20	21	
	4	8	1	3	1	2	17	16	
	5	15	1	3	1	2	13	13	
	6	16	1	2	1	2	13	13	
	7	21	1	2	1	1	7	7	
	8	24	1	2	1	1	4	6	
	9	25	1	2	1	1	2	2	
6	1	2	4	4	4	1	23	26	
	2	6	4	4	3	1	21	26	
	3	8	4	4	3	1	21	24	
	4	14	3	4	2	1	18	19	
	5	15	3	4	2	1	18	16	
	6	17	3	4	2	1	16	14	
	7	25	3	4	2	1	15	13	
	8	26	2	4	1	1	11	9	
	9	29	2	4	1	1	10	7	
7	1	6	3	4	5	3	27	21	
	2	7	2	3	4	3	25	20	
	3	19	2	3	4	3	23	17	
	4	22	2	3	4	3	22	17	
	5	23	2	3	4	3	21	16	
	6	24	2	3	4	2	19	14	
	7	25	2	3	4	2	17	11	
	8	29	2	3	4	2	16	10	
	9	30	2	3	4	2	14	9	
8	1	3	3	3	4	3	30	18	
	2	10	2	3	4	3	30	14	
	3	11	2	3	4	3	30	13	
	4	12	2	3	4	3	30	10	
	5	14	2	2	4	2	30	9	
	6	20	2	2	4	2	30	8	
	7	21	2	1	4	2	30	6	
	8	28	2	1	4	2	30	3	
	9	29	2	1	4	2	30	2	
9	1	2	3	4	4	4	16	14	
	2	3	3	4	4	3	15	14	
	3	4	3	4	4	3	14	14	
	4	5	3	4	4	2	12	13	
	5	18	3	3	4	2	11	13	
	6	21	3	3	4	2	10	13	
	7	24	3	3	4	1	10	12	
	8	25	3	3	4	1	8	12	
	9	30	3	3	4	1	8	11	
10	1	4	5	5	5	3	26	26	
	2	5	4	5	4	3	25	24	
	3	8	4	5	4	3	24	24	
	4	12	4	5	4	3	24	22	
	5	16	4	5	4	3	22	18	
	6	22	3	5	4	3	22	17	
	7	26	3	5	4	3	22	15	
	8	28	3	5	4	3	20	14	
	9	29	3	5	4	3	20	11	
11	1	4	4	5	3	2	17	18	
	2	9	4	4	2	2	17	16	
	3	14	4	4	2	2	17	14	
	4	19	4	4	2	2	16	11	
	5	24	4	3	2	1	16	9	
	6	26	3	3	2	1	16	7	
	7	27	3	3	2	1	15	5	
	8	28	3	2	2	1	15	4	
	9	29	3	2	2	1	15	1	
12	1	1	3	5	4	4	25	23	
	2	9	3	4	4	4	25	23	
	3	19	3	4	4	4	24	20	
	4	20	3	4	4	4	23	17	
	5	21	3	3	4	3	22	16	
	6	22	3	3	4	3	19	13	
	7	23	3	3	4	3	19	10	
	8	25	3	3	4	2	17	9	
	9	27	3	3	4	2	16	8	
13	1	7	4	4	4	1	23	26	
	2	9	4	4	4	1	19	23	
	3	10	4	4	4	1	17	20	
	4	20	3	4	4	1	17	16	
	5	21	3	3	4	1	15	15	
	6	22	3	3	3	1	13	13	
	7	23	3	3	3	1	9	12	
	8	27	2	3	3	1	9	7	
	9	30	2	3	3	1	5	7	
14	1	6	4	4	3	3	22	21	
	2	9	3	4	3	3	22	19	
	3	11	3	4	3	3	21	18	
	4	14	3	4	3	3	21	17	
	5	15	3	4	3	3	20	14	
	6	21	3	4	3	3	20	13	
	7	24	3	4	3	3	19	12	
	8	25	3	4	3	3	19	11	
	9	30	3	4	3	3	18	10	
15	1	3	4	1	4	3	25	27	
	2	11	4	1	3	3	25	25	
	3	16	3	1	3	3	23	24	
	4	17	3	1	3	3	23	20	
	5	18	3	1	2	3	22	20	
	6	25	2	1	2	3	21	18	
	7	26	1	1	2	3	19	16	
	8	27	1	1	2	3	18	14	
	9	29	1	1	2	3	18	11	
16	1	6	4	5	4	4	26	19	
	2	13	3	4	3	4	25	16	
	3	15	3	4	3	4	24	15	
	4	18	3	3	3	3	23	14	
	5	25	3	2	3	3	21	11	
	6	26	3	2	3	2	20	11	
	7	27	3	2	3	1	20	8	
	8	28	3	1	3	1	19	6	
	9	30	3	1	3	1	17	5	
17	1	9	2	3	2	4	26	16	
	2	10	1	3	2	3	23	13	
	3	13	1	3	2	3	22	11	
	4	21	1	2	2	2	22	10	
	5	25	1	2	2	2	20	9	
	6	26	1	2	2	2	17	7	
	7	27	1	1	2	1	15	6	
	8	29	1	1	2	1	14	4	
	9	30	1	1	2	1	12	2	
18	1	5	4	4	3	3	11	26	
	2	9	4	3	3	2	10	24	
	3	11	4	3	3	2	9	22	
	4	14	4	3	3	2	9	20	
	5	15	4	3	3	2	7	18	
	6	16	4	2	2	1	7	18	
	7	19	4	2	2	1	5	16	
	8	26	4	2	2	1	4	15	
	9	27	4	2	2	1	4	13	
19	1	1	5	2	4	3	3	11	
	2	2	4	2	4	3	3	11	
	3	3	4	2	4	3	3	10	
	4	7	4	2	4	3	3	9	
	5	8	4	2	3	3	2	8	
	6	11	4	2	3	3	2	7	
	7	13	4	2	3	3	2	6	
	8	23	4	2	2	3	2	4	
	9	29	4	2	2	3	2	3	
20	1	6	1	4	3	4	29	23	
	2	9	1	4	3	3	29	21	
	3	11	1	4	3	3	29	19	
	4	15	1	4	3	3	29	16	
	5	16	1	4	3	3	29	15	
	6	17	1	4	3	2	29	15	
	7	18	1	4	3	2	29	11	
	8	21	1	4	3	2	29	10	
	9	22	1	4	3	2	29	9	
21	1	3	3	4	4	4	14	7	
	2	6	3	3	4	4	13	6	
	3	10	3	3	4	4	12	6	
	4	14	3	2	4	3	12	6	
	5	22	3	2	4	3	11	6	
	6	24	3	2	4	3	11	5	
	7	25	3	1	4	3	10	5	
	8	28	3	1	4	2	10	5	
	9	29	3	1	4	2	9	5	
22	1	1	1	5	3	4	11	21	
	2	3	1	5	3	4	10	18	
	3	4	1	5	3	4	9	15	
	4	11	1	5	3	4	9	14	
	5	13	1	5	3	4	8	12	
	6	15	1	5	2	3	7	11	
	7	16	1	5	2	3	7	8	
	8	24	1	5	2	3	6	7	
	9	28	1	5	2	3	6	5	
23	1	7	4	4	5	4	23	20	
	2	8	3	3	4	3	23	20	
	3	9	3	3	4	3	20	19	
	4	14	3	3	4	3	19	18	
	5	16	3	3	4	3	18	17	
	6	18	3	3	4	3	15	16	
	7	19	3	3	4	3	15	15	
	8	20	3	3	4	3	14	15	
	9	22	3	3	4	3	11	14	
24	1	2	3	2	4	4	22	10	
	2	3	2	2	3	3	19	9	
	3	4	2	2	3	3	18	8	
	4	11	2	2	3	3	14	8	
	5	14	2	2	2	2	12	7	
	6	17	2	2	2	2	11	6	
	7	19	2	2	2	2	9	5	
	8	21	2	2	1	2	7	4	
	9	25	2	2	1	2	6	4	
25	1	1	4	4	3	5	15	15	
	2	2	4	4	3	4	12	12	
	3	4	4	4	3	3	12	12	
	4	7	4	3	3	3	10	10	
	5	11	3	3	3	2	9	8	
	6	18	3	3	3	2	7	6	
	7	20	3	2	3	2	6	6	
	8	28	3	2	3	1	5	4	
	9	30	3	2	3	1	3	3	
26	1	3	5	3	3	4	23	29	
	2	4	4	2	2	4	23	26	
	3	8	4	2	2	4	22	25	
	4	9	4	2	2	3	20	24	
	5	14	3	2	2	3	19	23	
	6	15	3	1	1	3	18	22	
	7	22	3	1	1	3	17	20	
	8	25	3	1	1	2	17	17	
	9	26	3	1	1	2	15	17	
27	1	1	5	4	4	1	25	30	
	2	2	4	3	3	1	23	29	
	3	6	4	3	3	1	21	29	
	4	15	4	3	3	1	19	29	
	5	17	4	2	2	1	18	29	
	6	18	4	2	2	1	16	29	
	7	21	4	2	1	1	15	29	
	8	25	4	2	1	1	11	29	
	9	29	4	2	1	1	10	29	
28	1	7	5	1	1	3	27	24	
	2	13	5	1	1	3	26	23	
	3	15	5	1	1	3	24	22	
	4	19	5	1	1	3	23	21	
	5	21	5	1	1	3	23	20	
	6	22	5	1	1	2	22	21	
	7	24	5	1	1	2	20	20	
	8	25	5	1	1	2	20	19	
	9	26	5	1	1	2	19	19	
29	1	1	4	1	1	5	20	20	
	2	8	3	1	1	4	19	20	
	3	11	3	1	1	4	18	18	
	4	17	3	1	1	4	18	17	
	5	18	2	1	1	3	18	14	
	6	19	2	1	1	3	17	14	
	7	22	2	1	1	3	16	12	
	8	25	2	1	1	2	16	9	
	9	29	2	1	1	2	16	8	
30	1	5	4	5	2	2	24	9	
	2	10	4	4	2	2	24	8	
	3	11	3	4	2	2	24	7	
	4	18	3	3	2	2	23	6	
	5	19	2	3	2	2	23	6	
	6	21	2	3	2	2	23	5	
	7	22	1	2	2	2	23	5	
	8	24	1	2	2	2	22	3	
	9	26	1	2	2	2	22	2	
31	1	3	2	5	4	4	28	20	
	2	5	2	4	4	4	23	19	
	3	6	2	4	4	4	23	18	
	4	15	2	3	4	3	18	15	
	5	17	2	3	4	3	17	14	
	6	25	2	3	4	3	14	11	
	7	26	2	3	4	3	13	9	
	8	27	2	2	4	2	10	6	
	9	28	2	2	4	2	8	5	
32	1	2	3	4	3	3	8	22	
	2	4	2	3	3	3	7	22	
	3	8	2	3	3	3	7	21	
	4	10	2	3	3	3	7	20	
	5	16	1	2	2	3	7	20	
	6	21	1	2	2	3	7	19	
	7	25	1	2	2	3	7	18	
	8	28	1	1	2	3	7	20	
	9	29	1	1	2	3	7	19	
33	1	8	2	2	2	3	19	24	
	2	9	2	2	2	2	18	22	
	3	12	2	2	2	2	18	21	
	4	13	2	2	2	2	18	20	
	5	16	2	1	2	2	18	19	
	6	20	2	1	2	1	18	19	
	7	21	2	1	2	1	18	18	
	8	22	2	1	2	1	18	17	
	9	24	2	1	2	1	18	15	
34	1	2	3	4	2	1	23	28	
	2	3	2	4	2	1	21	27	
	3	5	2	3	2	1	18	26	
	4	8	2	3	2	1	18	25	
	5	9	2	3	2	1	16	25	
	6	10	2	2	2	1	14	24	
	7	19	2	1	2	1	14	22	
	8	25	2	1	2	1	11	22	
	9	29	2	1	2	1	11	21	
35	1	4	5	4	5	4	29	26	
	2	5	5	3	4	3	26	23	
	3	6	5	3	4	3	25	23	
	4	7	5	3	3	3	24	21	
	5	9	5	3	3	2	23	15	
	6	16	5	3	3	2	22	14	
	7	20	5	3	2	2	22	10	
	8	21	5	3	2	1	21	9	
	9	24	5	3	2	1	20	5	
36	1	2	4	5	4	2	21	8	
	2	4	4	5	4	2	19	7	
	3	5	4	5	4	2	18	6	
	4	6	4	5	4	2	18	5	
	5	18	3	5	4	2	16	6	
	6	19	3	5	4	2	16	5	
	7	26	2	5	4	2	15	5	
	8	27	2	5	4	2	13	4	
	9	30	2	5	4	2	13	3	
37	1	2	3	4	3	2	24	26	
	2	4	3	4	3	1	24	24	
	3	7	3	4	3	1	24	22	
	4	24	3	3	3	1	24	20	
	5	25	2	3	3	1	24	16	
	6	26	2	2	3	1	24	16	
	7	27	2	1	3	1	24	12	
	8	28	1	1	3	1	24	11	
	9	29	1	1	3	1	24	8	
38	1	3	2	2	4	2	2	25	
	2	7	2	1	3	2	2	21	
	3	11	2	1	3	2	2	18	
	4	12	2	1	3	2	2	17	
	5	13	2	1	3	2	2	15	
	6	16	2	1	3	2	2	11	
	7	23	2	1	3	2	2	10	
	8	24	2	1	3	2	2	8	
	9	29	2	1	3	2	2	7	
39	1	1	4	4	4	4	24	9	
	2	2	3	3	4	3	23	9	
	3	4	3	3	4	3	23	8	
	4	8	3	2	4	3	22	8	
	5	12	3	2	3	3	21	8	
	6	13	3	2	3	3	20	7	
	7	19	3	2	2	3	19	6	
	8	20	3	1	2	3	18	6	
	9	24	3	1	2	3	17	6	
40	1	4	2	4	3	5	21	26	
	2	9	2	3	3	4	19	24	
	3	11	2	3	3	4	19	21	
	4	13	2	3	3	3	16	17	
	5	21	2	2	3	3	14	14	
	6	22	2	2	3	3	14	11	
	7	23	2	2	3	2	12	10	
	8	27	2	1	3	2	11	7	
	9	28	2	1	3	2	10	4	
41	1	5	1	3	4	4	24	29	
	2	7	1	2	4	4	23	28	
	3	8	1	2	4	4	22	28	
	4	9	1	2	3	4	22	28	
	5	10	1	2	3	3	21	27	
	6	11	1	1	3	3	20	26	
	7	13	1	1	2	3	20	25	
	8	23	1	1	2	3	18	24	
	9	24	1	1	2	3	18	23	
42	1	5	5	4	3	3	17	15	
	2	7	5	4	2	3	17	15	
	3	8	5	4	2	3	16	14	
	4	12	5	3	2	3	14	12	
	5	13	5	3	2	3	14	11	
	6	14	5	3	1	3	13	9	
	7	17	5	2	1	3	11	9	
	8	25	5	2	1	3	10	8	
	9	30	5	2	1	3	10	6	
43	1	7	4	3	2	2	30	29	
	2	8	4	2	2	2	27	28	
	3	9	4	2	2	2	26	28	
	4	12	4	2	2	2	23	28	
	5	13	3	2	2	1	23	28	
	6	15	3	2	2	1	20	28	
	7	16	3	2	2	1	18	28	
	8	20	2	2	2	1	17	28	
	9	25	2	2	2	1	15	28	
44	1	3	2	2	4	4	17	22	
	2	4	2	2	3	4	16	22	
	3	8	2	2	3	4	14	20	
	4	12	2	2	3	4	14	19	
	5	16	2	2	2	3	13	18	
	6	17	2	2	2	3	11	18	
	7	18	2	2	1	3	10	17	
	8	22	2	2	1	3	7	16	
	9	23	2	2	1	3	7	15	
45	1	4	5	5	5	4	26	28	
	2	5	4	4	4	3	25	28	
	3	10	4	4	4	3	23	28	
	4	13	4	4	4	3	22	28	
	5	14	3	4	4	3	22	27	
	6	20	3	4	3	3	21	27	
	7	23	3	4	3	3	20	26	
	8	24	2	4	3	3	19	26	
	9	29	2	4	3	3	17	26	
46	1	6	3	5	2	5	27	25	
	2	8	2	4	1	5	24	22	
	3	10	2	4	1	5	24	21	
	4	13	2	4	1	5	20	18	
	5	14	2	4	1	5	18	17	
	6	15	2	4	1	5	17	17	
	7	18	2	4	1	5	15	15	
	8	26	2	4	1	5	12	13	
	9	27	2	4	1	5	11	11	
47	1	1	4	4	3	5	20	13	
	2	11	4	4	2	4	19	11	
	3	13	4	4	2	4	17	11	
	4	15	3	3	2	3	17	8	
	5	16	3	2	1	3	16	7	
	6	22	3	2	1	2	14	6	
	7	23	3	1	1	1	14	5	
	8	26	2	1	1	1	13	4	
	9	28	2	1	1	1	11	2	
48	1	2	5	5	3	3	18	12	
	2	9	5	4	3	2	17	12	
	3	11	5	3	3	2	17	10	
	4	12	5	3	3	2	17	9	
	5	18	5	2	2	2	16	8	
	6	19	5	2	2	2	16	7	
	7	20	5	1	2	2	16	6	
	8	26	5	1	2	2	16	5	
	9	27	5	1	2	2	16	4	
49	1	1	2	4	4	4	27	16	
	2	2	2	4	4	3	23	15	
	3	5	2	4	4	3	19	15	
	4	7	2	4	4	3	16	13	
	5	8	2	4	4	2	15	12	
	6	9	2	4	3	2	12	11	
	7	10	2	4	3	2	8	9	
	8	14	2	4	3	2	6	8	
	9	23	2	4	3	2	3	8	
50	1	1	4	4	2	5	29	5	
	2	5	3	4	2	4	28	4	
	3	10	3	4	2	4	25	4	
	4	19	3	4	2	4	25	3	
	5	21	3	4	2	3	22	3	
	6	22	3	4	2	3	22	2	
	7	23	3	4	2	3	21	3	
	8	27	3	4	2	3	19	3	
	9	30	3	4	2	3	18	3	
51	1	9	5	5	3	2	17	22	
	2	13	4	5	3	2	17	18	
	3	16	4	5	3	2	15	17	
	4	17	4	5	3	2	15	14	
	5	18	4	5	3	2	14	10	
	6	19	4	5	3	2	14	9	
	7	21	4	5	3	2	13	7	
	8	23	4	5	3	2	11	3	
	9	28	4	5	3	2	11	2	
52	1	0	0	0	0	0	0	0	
************************************************************************

 RESOURCE AVAILABILITIES 
	R 1	R 2	R 3	R 4	N 1	N 2
	23	19	23	18	963	870

************************************************************************
